c Sudoku solution
p cnf 729 0
163 0
191 0
224 0
278 0
283 0
335 0
354 0
426 0
434 0
441 0
488 0
521 0
567 0
643 0
697 0
417 0
715 0
625 0
739 0
786 0
853 0
885 0
948 0
957 0
965 0
993 0
723 0
922 0
777 0
798 0
313 0
361 0
158 0
328 0
533 0
827 0
129 0
751 0
518 0
632 0
619 0
838 0
656 0
668 0
544 0
742 0
764 0
473 0
894 0
872 0
811 0
936 0
914 0
231 0
137 0
387 0
247 0
145 0
295 0
392 0
184 0
176 0
379 0
112 0
216 0
346 0
849 0
866 0
674 0
681 0
971 0
989 0
575 0
596 0
455 0
582 0
499 0
462 0
559 0
252 0
269 0
